(set-logic QF_SLAH)

(declare-datatypes ((data_t 0)) (((c_data_t (sz Int)))))

(declare-heap (Int data_t))

(define-fun hck ((?x Int) (?y Int) (?v Int)) Bool
	(and
		(>= (- ?y ?x) 2) (<= (- ?y ?x) ?v)
		(sep (pto ?x (c_data_t (- ?y ?x))) (blk (+ ?x 1) ?y))
))

(define-fun-rec hls ((?x Int) (?y Int) (?v Int)) Bool
	(or
		(and (= ?x ?y) (_ emp Int data_t))
		(exists ((?w Int)) (sep (hck ?x ?w ?v) (hls ?w ?y ?v)))
))

(declare-const x0 Int)
(declare-const x1 Int)
(declare-const x2 Int)
(declare-const x3 Int)
(declare-const x4 Int)
(declare-const x5 Int)
(declare-const v4 Int)
(declare-const x6 Int)
(declare-const x7 Int)
(declare-const v6 Int)
(declare-const x8 Int)
(declare-const x9 Int)
(declare-const x10 Int)
(declare-const x11 Int)
(declare-const v10 Int)
(declare-const x12 Int)
(declare-const x13 Int)
(declare-const x14 Int)
(declare-const x15 Int)
(declare-const v14 Int)
(declare-const x16 Int)
(declare-const x17 Int)
(declare-const x18 Int)
(declare-const x19 Int)
(declare-const x20 Int)
(declare-const x21 Int)
(declare-const x22 Int)
(declare-const x23 Int)
(declare-const x24 Int)
(declare-const x25 Int)
(declare-const x26 Int)
(declare-const x27 Int)
(declare-const x28 Int)
(declare-const x29 Int)
(declare-const v28 Int)
(declare-const x30 Int)
(declare-const x31 Int)
(declare-const x32 Int)
(declare-const x33 Int)
(declare-const x34 Int)
(declare-const x35 Int)
(declare-const x36 Int)
(declare-const x37 Int)
(declare-const x38 Int)
(declare-const x39 Int)
(declare-const x40 Int)
(declare-const x41 Int)
(declare-const x42 Int)
(declare-const x43 Int)
(declare-const x44 Int)
(declare-const x45 Int)
(declare-const x46 Int)
(declare-const x47 Int)
(declare-const v46 Int)
(declare-const x48 Int)
(declare-const x49 Int)
(declare-const x50 Int)
(declare-const x51 Int)
(declare-const x52 Int)
(declare-const x53 Int)
(declare-const v52 Int)
(declare-const x54 Int)
(declare-const x55 Int)
(declare-const v54 Int)
(declare-const x56 Int)
(declare-const x57 Int)
(declare-const x58 Int)
(declare-const x59 Int)
(declare-const v58 Int)
(declare-const x60 Int)
(declare-const x61 Int)
(declare-const x62 Int)
(declare-const x63 Int)
(declare-const x64 Int)
(declare-const x65 Int)
(declare-const x66 Int)
(declare-const x67 Int)
(declare-const x68 Int)
(declare-const x69 Int)
(declare-const x70 Int)
(declare-const x71 Int)
(declare-const x72 Int)
(declare-const x73 Int)
(declare-const x74 Int)
(declare-const x75 Int)
(declare-const x76 Int)
(declare-const x77 Int)
(declare-const v76 Int)
(declare-const x78 Int)
(declare-const x79 Int)
(declare-const v78 Int)
(declare-const x80 Int)
(declare-const x81 Int)
(declare-const x82 Int)
(declare-const x83 Int)
(declare-const v82 Int)
(declare-const x84 Int)
(declare-const x85 Int)
(declare-const x86 Int)
(declare-const x87 Int)
(declare-const x88 Int)
(declare-const x89 Int)
(declare-const v88 Int)
(declare-const x90 Int)
(declare-const x91 Int)
(declare-const x92 Int)
(declare-const x93 Int)
(declare-const v92 Int)
(declare-const x94 Int)
(declare-const x95 Int)
(declare-const x96 Int)
(declare-const x97 Int)
(declare-const v96 Int)
(declare-const x98 Int)
(declare-const x99 Int)
(declare-const x100 Int)
(declare-const x101 Int)
(declare-const v100 Int)
(declare-const x102 Int)
(declare-const x103 Int)
(declare-const x104 Int)
(declare-const x105 Int)
(declare-const x106 Int)
(declare-const x107 Int)
(declare-const x108 Int)
(declare-const x109 Int)
(declare-const x110 Int)
(declare-const x111 Int)
(declare-const v110 Int)
(declare-const x112 Int)
(declare-const x113 Int)
(declare-const x114 Int)
(declare-const x115 Int)
(declare-const v114 Int)
(declare-const x116 Int)
(declare-const x117 Int)
(declare-const v116 Int)
(declare-const x118 Int)
(declare-const x119 Int)
(declare-const x120 Int)
(declare-const x121 Int)
(declare-const x122 Int)
(declare-const x123 Int)
(declare-const v122 Int)
(declare-const x124 Int)
(declare-const x125 Int)
(declare-const x126 Int)
(declare-const x127 Int)
(declare-const x128 Int)
(declare-const x129 Int)
(declare-const x130 Int)
(declare-const x131 Int)
(declare-const x132 Int)
(declare-const x133 Int)
(declare-const v132 Int)
(declare-const x134 Int)
(declare-const x135 Int)
(declare-const v134 Int)
(declare-const x136 Int)
(declare-const x137 Int)
(declare-const v136 Int)
(declare-const x138 Int)
(declare-const x139 Int)
(declare-const x140 Int)
(declare-const x141 Int)
(declare-const x142 Int)
(declare-const x143 Int)
(declare-const v142 Int)
(declare-const x144 Int)
(declare-const x145 Int)
(declare-const v144 Int)
(declare-const x146 Int)
(declare-const x147 Int)
(declare-const x148 Int)
(declare-const x149 Int)
(declare-const x150 Int)
(declare-const x151 Int)
(declare-const x152 Int)
(declare-const x153 Int)
(declare-const x154 Int)
(declare-const x155 Int)
(declare-const x156 Int)
(declare-const x157 Int)
(declare-const x158 Int)
(declare-const x159 Int)
(declare-const x160 Int)
(declare-const x161 Int)
(declare-const v160 Int)
(declare-const x162 Int)
(declare-const x163 Int)
(declare-const x164 Int)
(declare-const x165 Int)
(declare-const x166 Int)
(declare-const x167 Int)
(declare-const v166 Int)
(declare-const x168 Int)
(declare-const x169 Int)
(declare-const x170 Int)
(declare-const x171 Int)
(declare-const x172 Int)
(declare-const x173 Int)
(declare-const v172 Int)
(declare-const x174 Int)
(declare-const x175 Int)
(declare-const x176 Int)
(declare-const x177 Int)
(declare-const x178 Int)
(declare-const x179 Int)
(declare-const x180 Int)
(declare-const x181 Int)
(declare-const v180 Int)
(declare-const x182 Int)
(declare-const x183 Int)
(declare-const v182 Int)
(declare-const x184 Int)
(declare-const x185 Int)
(declare-const x186 Int)
(declare-const x187 Int)
(declare-const x188 Int)
(declare-const x189 Int)
(declare-const x190 Int)
(declare-const x191 Int)
(declare-const v190 Int)
(declare-const x192 Int)
(declare-const x193 Int)
(declare-const x194 Int)
(declare-const x195 Int)
(declare-const v194 Int)
(declare-const x196 Int)
(declare-const x197 Int)
(declare-const v196 Int)
(declare-const x198 Int)
(declare-const x199 Int)

(assert(and
(= x30 x26) (distinct x150 x147) (< x72 x144) (< x68 x21) (= x134 x115) (distinct x120 x135) (< x160 x183) (= x109 x73) (< x22 x139) (= x73 x163) 
(sep
(pto x0 (c_data_t x1))
(pto x2 (c_data_t x3))
(hls x4 x5 v4)
(hls x6 x7 v6)
(pto x8 (c_data_t x9))
(hls x10 x11 v10)
(pto x12 (c_data_t x13))
(hls x14 x15 v14)
(pto x16 (c_data_t x17))
(pto x18 (c_data_t x19))
(pto x20 (c_data_t x21))
(blk x22 x23)
(blk x24 x25)
(blk x26 x27)
(hls x28 x29 v28)
(pto x30 (c_data_t x31))
(pto x32 (c_data_t x33))
(pto x34 (c_data_t x35))
(blk x36 x37)
(pto x38 (c_data_t x39))
(pto x40 (c_data_t x41))
(blk x42 x43)
(blk x44 x45)
(hls x46 x47 v46)
(pto x48 (c_data_t x49))
(blk x50 x51)
(hls x52 x53 v52)
(hls x54 x55 v54)
(blk x56 x57)
(hls x58 x59 v58)
(pto x60 (c_data_t x61))
(pto x62 (c_data_t x63))
(pto x64 (c_data_t x65))
(pto x66 (c_data_t x67))
(blk x68 x69)
(pto x70 (c_data_t x71))
(blk x72 x73)
(blk x74 x75)
(hls x76 x77 v76)
(hls x78 x79 v78)
(blk x80 x81)
(hls x82 x83 v82)
(blk x84 x85)
(blk x86 x87)
(hls x88 x89 v88)
(pto x90 (c_data_t x91))
(hls x92 x93 v92)
(blk x94 x95)
(hls x96 x97 v96)
(blk x98 x99)
(hls x100 x101 v100)
(blk x102 x103)
(blk x104 x105)
(blk x106 x107)
(pto x108 (c_data_t x109))
(hls x110 x111 v110)
(pto x112 (c_data_t x113))
(hls x114 x115 v114)
(hls x116 x117 v116)
(blk x118 x119)
(pto x120 (c_data_t x121))
(hls x122 x123 v122)
(pto x124 (c_data_t x125))
(pto x126 (c_data_t x127))
(blk x128 x129)
(blk x130 x131)
(hls x132 x133 v132)
(hls x134 x135 v134)
(hls x136 x137 v136)
(pto x138 (c_data_t x139))
(pto x140 (c_data_t x141))
(hls x142 x143 v142)
(hls x144 x145 v144)
(blk x146 x147)
(blk x148 x149)
(pto x150 (c_data_t x151))
(pto x152 (c_data_t x153))
(pto x154 (c_data_t x155))
(blk x156 x157)
(pto x158 (c_data_t x159))
(hls x160 x161 v160)
(blk x162 x163)
(blk x164 x165)
(hls x166 x167 v166)
(blk x168 x169)
(pto x170 (c_data_t x171))
(hls x172 x173 v172)
(blk x174 x175)
(blk x176 x177)
(blk x178 x179)
(hls x180 x181 v180)
(hls x182 x183 v182)
(pto x184 (c_data_t x185))
(blk x186 x187)
(pto x188 (c_data_t x189))
(hls x190 x191 v190)
(blk x192 x193)
(hls x194 x195 v194)
(hls x196 x197 v196)
(blk x198 x199)
)))

(check-sat)